words_train/words_195_SAT.qaiger
aag 62 16 0 1 46
26
28
18
30
32
16
22
2
6
20
4
12
10
24
14
8
125
34 22 20
36 34 24
38 36 26
40 38 28
42 39 29
44 43 41
46 44 12
48 45 13
50 49 47
52 40 30
54 33 17
56 32 16
58 57 55
60 59 53
62 58 52
64 63 61
66 20 4
68 21 5
70 69 3
72 70 67
74 23 21
76 75 35
78 76 7
80 77 6
82 81 79
84 82 72
86 35 25
88 87 37
90 88 8
92 89 9
94 93 91
96 95 84
98 37 27
100 99 39
102 100 11
104 101 10
106 105 103
108 106 96
110 108 65
112 110 51
114 41 31
116 115 53
118 116 14
120 117 15
122 121 119
124 123 112
i0 2 y[4]
i1 2 y[5]
i2 2 y[0]
i3 2 y[6]
i4 2 y[7]
i5 1 x[7]
i6 2 y[2]
i7 1 x[0]
i8 1 x[2]
i9 2 y[1]
i10 1 x[1]
i11 1 x[5]
i12 1 x[4]
i13 2 y[3]
i14 1 x[6]
i15 1 x[3]
o0 bool[0]
c
simplified
  !=
    1 x
    add
      1
      or
        1
        or
          1
          2 y
