words_train/words_195_SAT.qaiger.qdimacs
p cnf 62 139
a 1 2 3 4 5 6 7 8 0
e 9 10 11 12 13 14 15 16 17 18 19 20 21 22 23 24 25 26 27 28 29 30 31 32 33 34 35 36 37 38 39 40 41 42 43 44 45 46 47 48 49 50 51 52 53 54 55 56 57 58 59 60 61 62 0
-11 -10 17 0
11 -17 0
10 -17 0
-17 -12 18 0
17 -18 0
12 -18 0
-18 -13 19 0
18 -19 0
13 -19 0
-19 -14 20 0
19 -20 0
14 -20 0
19 14 21 0
-19 -21 0
-14 -21 0
21 20 22 0
-21 -22 0
-20 -22 0
-22 -6 23 0
22 -23 0
6 -23 0
22 6 24 0
-22 -24 0
-6 -24 0
24 23 25 0
-24 -25 0
-23 -25 0
-20 -15 26 0
20 -26 0
15 -26 0
16 8 27 0
-16 -27 0
-8 -27 0
-16 -8 28 0
16 -28 0
8 -28 0
28 27 29 0
-28 -29 0
-27 -29 0
29 26 30 0
-29 -30 0
-26 -30 0
-29 -26 31 0
29 -31 0
26 -31 0
31 30 32 0
-31 -32 0
-30 -32 0
-10 -2 33 0
10 -33 0
2 -33 0
10 2 34 0
-10 -34 0
-2 -34 0
34 1 35 0
-34 -35 0
-1 -35 0
-35 33 36 0
35 -36 0
-33 -36 0
11 10 37 0
-11 -37 0
-10 -37 0
37 17 38 0
-37 -38 0
-17 -38 0
-38 3 39 0
38 -39 0
-3 -39 0
38 -3 40 0
-38 -40 0
3 -40 0
40 39 41 0
-40 -41 0
-39 -41 0
-41 -36 42 0
41 -42 0
36 -42 0
17 12 43 0
-17 -43 0
-12 -43 0
43 18 44 0
-43 -44 0
-18 -44 0
-44 -4 45 0
44 -45 0
4 -45 0
44 4 46 0
-44 -46 0
-4 -46 0
46 45 47 0
-46 -47 0
-45 -47 0
47 -42 48 0
-47 -48 0
42 -48 0
18 13 49 0
-18 -49 0
-13 -49 0
49 19 50 0
-49 -50 0
-19 -50 0
-50 5 51 0
50 -51 0
-5 -51 0
50 -5 52 0
-50 -52 0
5 -52 0
52 51 53 0
-52 -53 0
-51 -53 0
-53 -48 54 0
53 -54 0
48 -54 0
-54 32 55 0
54 -55 0
-32 -55 0
-55 25 56 0
55 -56 0
-25 -56 0
20 15 57 0
-20 -57 0
-15 -57 0
57 26 58 0
-57 -58 0
-26 -58 0
-58 -7 59 0
58 -59 0
7 -59 0
58 7 60 0
-58 -60 0
-7 -60 0
60 59 61 0
-60 -61 0
-59 -61 0
61 -56 62 0
-61 -62 0
56 -62 0
-62 0
